SQS structure (ATAT -> POSCAR)
1.0
    1.0000000000     0.0000000000     0.0000000000
    0.0000000000     1.0000000000     0.0000000000
    0.0000000000     0.0000000000     1.0000000000
a_A a_C a_B
12 12 12
Direct
   -1.5000000000    -1.0000000000    -0.5000000000
   -3.0000000000     0.5000000000    -2.5000000000
   -2.5000000000     0.5000000000    -3.0000000000
   -1.5000000000    -0.5000000000    -2.0000000000
   -1.0000000000    -1.0000000000    -1.0000000000
   -2.0000000000     0.5000000000    -1.5000000000
   -1.0000000000    -0.0000000000    -2.0000000000
   -1.0000000000    -0.5000000000    -1.5000000000
   -2.0000000000    -1.0000000000    -2.0000000000
   -2.0000000000    -1.0000000000    -1.0000000000
   -1.5000000000    -1.5000000000    -1.0000000000
   -2.5000000000    -0.5000000000    -2.0000000000
   -2.5000000000    -0.0000000000    -1.5000000000
   -2.0000000000    -0.5000000000    -1.5000000000
   -2.5000000000    -0.0000000000    -2.5000000000
   -2.0000000000    -0.0000000000    -2.0000000000
   -1.0000000000    -0.0000000000    -1.0000000000
   -0.5000000000    -0.5000000000    -1.0000000000
   -2.0000000000     1.5000000000    -2.5000000000
   -3.0000000000    -0.0000000000    -3.0000000000
   -1.5000000000     0.5000000000    -2.0000000000
   -1.5000000000     1.0000000000    -1.5000000000
   -1.0000000000     0.5000000000    -1.5000000000
   -1.5000000000     1.0000000000    -2.5000000000
   -1.5000000000    -1.0000000000    -1.5000000000
   -1.5000000000    -0.5000000000    -1.0000000000
   -1.0000000000    -0.5000000000    -0.5000000000
   -2.5000000000     1.0000000000    -2.5000000000
   -2.0000000000     1.0000000000    -3.0000000000
   -2.5000000000     0.5000000000    -2.0000000000
   -1.5000000000    -0.0000000000    -1.5000000000
   -0.5000000000    -0.0000000000    -0.5000000000
   -2.0000000000     0.5000000000    -2.5000000000
   -2.0000000000     1.0000000000    -2.0000000000
   -0.5000000000    -0.0000000000    -1.5000000000
   -3.0000000000    -0.0000000000    -2.0000000000
